(set-logic LIA) (declare-var c!27 Int) (declare-var xPostExec Int) (declare-var x!24 Int) (declare-var cPostExec Int) (declare-var inI0 Int) (declare-var c!19 Int) (declare-var c!M4 Int) (declare-var x!16 Int) (declare-var J13 Bool) (declare-var x!M4 Int) (declare-var J8 Bool) (synth-fun rankingFunction!0 ((arg0 Int) (arg1 Int)) Int ((NTInt Int) (NTbool Bool)) ((NTInt Int (arg0 arg1 0 1 (- NTInt) (+ NTInt NTInt) (- NTInt NTInt) (ite NTbool NTInt NTInt))) (NTbool Bool ((not NTbool) (and NTbool NTbool) (or NTbool NTbool) (ite NTbool NTbool NTbool) (= NTInt NTInt) (< NTInt NTInt) (> NTInt NTInt))))) (constraint (=> (and (and (and (and (and (and (and (and (and (and (and (and (= J8 (<= c!M4 0)) (= J13 (<= x!M4 100))) (= x!24 (+ 11 x!M4))) (= c!27 (+ 1 c!M4))) (= x!16 (+ (- 10) x!M4))) (= c!19 (+ (- 1) c!M4))) (=> (and (not J8) J13) (= xPostExec x!24))) (=> (and (not J8) J13) (= cPostExec c!27))) (=> (and (not J8) (not J13)) (= xPostExec x!16))) (=> (and (not J8) (not J13)) (= cPostExec c!19))) (or (and (not J8) J13) (and (not J8) (not J13)))) (= inI0 1)) (>= c!M4 0)) (and (> (rankingFunction!0 x!M4 c!M4) (rankingFunction!0 xPostExec cPostExec)) (>= (rankingFunction!0 x!M4 c!M4) 0)))) (check-synth)